%nproc=2
%mem=400MB
# HF STO-3G
# sp scf=tight

Hydrogen Atom Calculation

0 2
H 0.0 0.0 0.0

