%nproc=2
%mem=400MB
# PBE1PBE 6-31G(d,p)
# sp scf=tight

F Atom Calculation

0 2
F 0.0 0.0 0.0

