%nproc=2
%mem=400MB
# PBE1PBE 6-31G(d,p)
# sp scf=tight

H Atom Calculation

0 2
H 0.0 0.0 0.0

